(set-option :print-success false)
(set-logic QF_UF)
(declare-sort x155 0)
(declare-sort x48 0)
(declare-fun x3 () x48)
(declare-fun x26 (x48 x48) x48)
(declare-fun x73 (x48 x48) x48)
(declare-fun x139 () x48)
(declare-fun x110 () x48)
(declare-fun x149 () x48)
(declare-fun x142 () x48)
(assert (or (or (and (not (= (x26 x149 (x26 x149 x110)) x110)) (and (and (not (= x139 (x26 x149 (x26 x149 x139)))) (and (not (= x142 (x26 x149 (x26 x149 x142)))) (not (= x3 (x26 x149 (x26 x149 x3)))))) (not (= (x26 x149 (x26 x149 x149)) x149)))) (or (or (and (not (= (x26 x3 (x26 x3 x110)) x110)) (and (not (= x149 (x26 x3 (x26 x3 x149)))) (and (not (= x139 (x26 x3 (x26 x3 x139)))) (and (not (= x142 (x26 x3 (x26 x3 x142)))) (not (= x3 (x26 x3 (x26 x3 x3)))))))) (and (not (= (x26 x142 (x26 x142 x110)) x110)) (and (not (= x149 (x26 x142 (x26 x142 x149)))) (and (and (not (= x142 (x26 x142 (x26 x142 x142)))) (not (= (x26 x142 (x26 x142 x3)) x3))) (not (= (x26 x142 (x26 x142 x139)) x139)))))) (and (not (= x110 (x26 x139 (x26 x139 x110)))) (and (not (= (x26 x139 (x26 x139 x149)) x149)) (and (not (= x139 (x26 x139 (x26 x139 x139)))) (and (not (= x3 (x26 x139 (x26 x139 x3)))) (not (= (x26 x139 (x26 x139 x142)) x142)))))))) (and (not (= x110 (x26 x110 (x26 x110 x110)))) (and (and (and (not (= (x26 x110 (x26 x110 x3)) x3)) (not (= (x26 x110 (x26 x110 x142)) x142))) (not (= (x26 x110 (x26 x110 x139)) x139))) (not (= (x26 x110 (x26 x110 x149)) x149))))))
(assert (let ((x127 (x26 x149 x139)) (x128 (x26 x142 x110)) (x93 (x26 x139 x149)) (x144 (x26 x149 x142)) (x98 (x26 x3 x149)) (x97 (x26 x110 x3)) (x36 (x26 x110 x142)) (x87 (x26 x3 x139)) (x62 (x26 x149 x3)) (x28 (x26 x142 x139)) (x123 (x26 x139 x110)) (x11 (= x110 (x26 x110 x110))) (x35 (= x149 (x26 x149 x149))) (x129 (x26 x3 x142)) (x77 (x26 x139 x142)) (x50 (x26 x110 x139)) (x135 (x26 x3 x110)) (x141 (x26 x110 x149)) (x1 (= (x26 x142 x142) x142)) (x24 (x26 x142 x149)) (x122 (x26 x139 x3)) (x83 (x26 x149 x110)) (x46 (= x139 (x26 x139 x139))) (x111 (x26 x142 x3)) (x72 (= (x26 x3 x3) x3))) (or (or (or (or (and x35 x35) (or (or (and (= x24 x149) (= x149 x144)) (and (= x62 x149) (= x98 x149))) (and (= x149 x93) (= x127 x149)))) (and (= x149 x83) (= x149 x141))) (or (or (and (= x139 x50) (= x139 x123)) (or (and (= x93 x139) (= x139 x127)) (or (or (and (= x87 x139) (= x139 x122)) (and (= x28 x139) (= x77 x139))) (and x46 x46)))) (or (or (and (= x128 x142) (= x36 x142)) (or (and (= x142 x24) (= x142 x144)) (or (or (and x1 x1) (and (= x129 x142) (= x111 x142))) (and (= x28 x142) (= x77 x142))))) (or (and (= x3 x97) (= x135 x3)) (or (or (or (and (= x129 x3) (= x3 x111)) (and x72 x72)) (and (= x87 x3) (= x3 x122))) (and (= x62 x3) (= x3 x98))))))) (or (or (or (or (and (= x135 x110) (= x97 x110)) (and (= x128 x110) (= x110 x36))) (and (= x50 x110) (= x110 x123))) (and (= x141 x110) (= x110 x83))) (and x11 x11)))))
(assert (let ((x1 (x26 (x26 x142 x142) x142)) (x111 (x26 (x26 x139 x139) x139)) (x72 (x26 (x26 x149 x149) x149)) (x129 (x26 (x26 x3 x3) x3)) (x77 (x26 (x26 x110 x110) x110))) (or (and (and (not (= x110 x72)) (and (not (= x111 x110)) (and (not (= x110 x1)) (not (= x129 x110))))) (not (= x77 x110))) (or (and (not (= x149 x77)) (and (not (= x72 x149)) (and (not (= x149 x111)) (and (not (= x129 x149)) (not (= x149 x1)))))) (or (and (not (= x139 x77)) (and (not (= x139 x72)) (and (not (= x111 x139)) (and (not (= x129 x139)) (not (= x1 x139)))))) (or (and (and (not (= x72 x142)) (and (not (= x111 x142)) (and (not (= x142 x1)) (not (= x129 x142))))) (not (= x77 x142))) (and (and (not (= x3 x72)) (and (not (= x3 x111)) (and (not (= x3 x129)) (not (= x3 x1))))) (not (= x77 x3)))))))))
(assert (and (= (x26 x149 x142) x110) (and (and (= x3 (x26 x139 x149)) (= x139 (x26 x149 x110))) (= x149 (x26 x142 x142)))))
(assert (or (or (or (or (= (x26 x3 (x26 x3 x3)) x3) (= (x26 x142 (x26 x142 x142)) x142)) (= x139 (x26 x139 (x26 x139 x139)))) (= x149 (x26 x149 (x26 x149 x149)))) (= (x26 x110 (x26 x110 x110)) x110)))
(assert (let ((x72 (x26 x149 x149)) (x77 (x26 x110 x110)) (x111 (x26 x139 x139)) (x129 (x26 x3 x3)) (x1 (x26 x142 x142))) (or (and (not (= x110 x77)) (and (not (= x72 x110)) (and (and (not (= x1 x110)) (not (= x110 x129))) (not (= x110 x111))))) (or (or (and (not (= x139 x77)) (and (and (and (not (= x139 x1)) (not (= x129 x139))) (not (= x139 x111))) (not (= x139 x72)))) (or (and (not (= x77 x3)) (and (and (not (= x111 x3)) (and (not (= x129 x3)) (not (= x3 x1)))) (not (= x72 x3)))) (and (and (and (not (= x142 x111)) (and (not (= x142 x1)) (not (= x129 x142)))) (not (= x72 x142))) (not (= x142 x77))))) (and (not (= x149 x77)) (and (not (= x72 x149)) (and (not (= x149 x111)) (and (not (= x1 x149)) (not (= x149 x129))))))))))
(assert (and (or (or (or (or (= (x26 (x26 x110 x142) x142) x142) (= (x26 (x26 x110 x3) x3) x3)) (= x139 (x26 (x26 x110 x139) x139))) (= (x26 (x26 x110 x149) x149) x149)) (= (x26 (x26 x110 x110) x110) x110)) (and (or (or (= (x26 (x26 x149 x149) x149) x149) (or (or (= (x26 (x26 x149 x3) x3) x3) (= (x26 (x26 x149 x142) x142) x142)) (= x139 (x26 (x26 x149 x139) x139)))) (= (x26 (x26 x149 x110) x110) x110)) (and (and (or (= (x26 (x26 x142 x110) x110) x110) (or (or (= (x26 (x26 x142 x139) x139) x139) (or (= x3 (x26 (x26 x142 x3) x3)) (= x142 (x26 (x26 x142 x142) x142)))) (= (x26 (x26 x142 x149) x149) x149))) (or (= (x26 (x26 x3 x110) x110) x110) (or (or (or (= x3 (x26 (x26 x3 x3) x3)) (= (x26 (x26 x3 x142) x142) x142)) (= x139 (x26 (x26 x3 x139) x139))) (= x149 (x26 (x26 x3 x149) x149))))) (or (= (x26 (x26 x139 x110) x110) x110) (or (or (or (= (x26 (x26 x139 x142) x142) x142) (= (x26 (x26 x139 x3) x3) x3)) (= x139 (x26 (x26 x139 x139) x139))) (= (x26 (x26 x139 x149) x149) x149)))))))
(assert (and (and (not (= (x26 (x26 x149 x149) x149) x149)) (and (and (not (= x3 (x26 (x26 x3 x3) x3))) (not (= x142 (x26 (x26 x142 x142) x142)))) (not (= x139 (x26 (x26 x139 x139) x139))))) (not (= x110 (x26 (x26 x110 x110) x110)))))
(assert (let ((x123 (x26 x3 x110)) (x147 (x26 x110 x3)) (x54 (x26 x110 x149)) (x126 (x26 x110 x110)) (x77 (x26 x142 x149)) (x28 (x26 x142 x110)) (x88 (x26 x139 x139)) (x46 (x26 x139 x142)) (x111 (x26 x142 x3)) (x135 (x26 x3 x139)) (x129 (x26 x142 x142)) (x50 (x26 x3 x149)) (x72 (x26 x142 x139)) (x144 (x26 x149 x142)) (x124 (x26 x149 x149)) (x69 (x26 x149 x110)) (x71 (x26 x149 x139)) (x75 (x26 x110 x139)) (x31 (x26 x139 x110)) (x87 (x26 x3 x142)) (x24 (x26 x110 x142)) (x121 (x26 x149 x3)) (x97 (x26 x3 x3)) (x16 (x26 x139 x149)) (x11 (x26 x139 x3))) (let ((x153 (= x149 x97)) (x38 (= x110 x16)) (x159 (= x149 x88)) (x45 (= x110 x111)) (x35 (= x111 x142)) (x74 (= x24 x110)) (x60 (= x123 x139)) (x59 (= x142 x135)) (x30 (= x46 x139)) (x76 (= x121 x142)) (x140 (= x123 x149)) (x125 (= x3 x126)) (x42 (= x142 x69)) (x99 (= x31 x139)) (x32 (= x144 x3)) (x52 (= x149 x135)) (x70 (= x149 x16)) (x61 (= x149 x75)) (x136 (= x110 x124)) (x29 (= x139 x69)) (x131 (= x3 x124)) (x119 (= x3 x88)) (x107 (= x110 x50)) (x63 (= x149 x31)) (x58 (= x135 x3)) (x114 (= x16 x3)) (x101 (= x3 x54)) (x94 (= x3 x123)) (x103 (= x50 x139)) (x83 (= x97 x3)) (x152 (= x77 x142)) (x80 (= x31 x142)) (x57 (= x139 x97)) (x64 (= x50 x149)) (x134 (= x121 x149)) (x132 (= x28 x149)) (x68 (= x11 x110)) (x117 (= x142 x71)) (x116 (= x72 x142)) (x34 (= x3 x75)) (x113 (= x16 x142)) (x37 (= x69 x3)) (x1 (= x142 x129)) (x150 (= x147 x3)) (x15 (= x69 x110)) (x7 (= x28 x3)) (x90 (= x142 x126)) (x89 (= x142 x46)) (x12 (= x149 x11)) (x9 (= x147 x110)) (x96 (= x135 x110)) (x14 (= x3 x31)) (x33 (= x139 x72)) (x158 (= x88 x110)) (x109 (= x139 x71)) (x22 (= x124 x139)) (x66 (= x149 x124)) (x93 (= x87 x142)) (x13 (= x149 x77)) (x8 (= x16 x139)) (x36 (= x97 x142)) (x18 (= x75 x142)) (x137 (= x135 x139)) (x10 (= x24 x3)) (x112 (= x11 x142)) (x27 (= x111 x139)) (x102 (= x142 x124)) (x49 (= x121 x139)) (x62 (= x129 x139)) (x91 (= x123 x110)) (x154 (= x72 x110)) (x47 (= x149 x126)) (x98 (= x149 x129)) (x115 (= x77 x139)) (x78 (= x142 x24)) (x104 (= x144 x149)) (x51 (= x139 x147)) (x23 (= x54 x142)) (x141 (= x3 x111)) (x17 (= x142 x50)) (x133 (= x121 x3)) (x55 (= x149 x71)) (x145 (= x139 x87)) (x25 (= x139 x144)) (x84 (= x147 x149)) (x43 (= x71 x110)) (x127 (= x110 x129)) (x2 (= x142 x147)) (x41 (= x110 x144)) (x44 (= x54 x139)) (x106 (= x110 x31)) (x92 (= x149 x24)) (x108 (= x3 x11)) (x81 (= x139 x28)) (x56 (= x46 x3)) (x6 (= x88 x142)) (x53 (= x28 x110)) (x100 (= x72 x3)) (x85 (= x46 x149)) (x122 (= x3 x129)) (x5 (= x123 x142)) (x4 (= x72 x149)) (x120 (= x110 x87)) (x105 (= x142 x28)) (x82 (= x88 x139)) (x151 (= x110 x121)) (x157 (= x3 x71)) (x67 (= x77 x3)) (x79 (= x54 x149)) (x130 (= x110 x126)) (x138 (= x110 x54)) (x156 (= x126 x139)) (x20 (= x149 x87)) (x148 (= x139 x24)) (x65 (= x139 x75)) (x146 (= x149 x69)) (x128 (= x3 x87)) (x19 (= x11 x139)) (x118 (= x97 x110)) (x40 (= x110 x75)) (x86 (= x46 x110)) (x143 (= x142 x144)) (x95 (= x77 x110)) (x21 (= x50 x3)) (x39 (= x111 x149))) (and (and (and (and (and (and (and (or (or (or x85 (or x20 x98)) x104) x92) (or (or (or x4 (or x39 x98)) x13) x132)) (and (and (or (or x115 (or (or x27 x62) x33)) x81) (or (or x25 (or (or x62 x145) x30)) x148)) (and (and (or x7 (or x67 (or (or x122 x141) x100))) (or (or (or (or x122 x128) x56) x32) x10)) (and (or (or x143 (or x89 (or x93 x1))) x78) (or (or x152 (or (or x35 x1) x116)) x105))))) (and (or (or (or x154 (or x127 x45)) x95) x53) (or (or x41 (or (or x120 x127) x86)) x74))) (and (and (or (or x107 (or x96 (or x118 x120))) x91) (or (or (or (or x45 x118) x68) x151) x9)) (and (and (and (or (or x49 (or (or x57 x27) x19)) x51) (or (or (or (or x57 x145) x137) x103) x60)) (and (and (or (or (or x112 (or x35 x36)) x76) x2) (or (or (or x59 (or x93 x36)) x17) x5)) (and (or x94 (or x21 (or x58 (or x83 x128)))) (or x150 (or (or x108 (or x83 x141)) x133))))) (and (or x140 (or x64 (or (or x20 x153) x52))) (or x84 (or (or (or x153 x39) x12) x134)))))) (and (and (or (or (or x158 (or x96 x154)) x43) x40) (or (or x38 (or (or x68 x86) x158)) x106)) (and (and (and (and (or (or x157 (or (or x100 x58) x119)) x34) (or (or (or x119 (or x56 x108)) x114) x14)) (and (or x18 (or (or (or x116 x59) x6) x117)) (or (or (or (or x112 x89) x6) x113) x80))) (and (or x99 (or (or (or x19 x30) x82) x8)) (or (or x109 (or (or x33 x137) x82)) x65))) (and (or (or (or (or x4 x52) x159) x55) x61) (or (or (or x159 (or x85 x12)) x70) x63))))) (and (and (or (or (or x43 (or x151 x41)) x136) x15) (or x138 (or x136 (or (or x95 x107) x38)))) (and (and (and (or x29 (or x22 (or x109 (or x49 x25)))) (or (or (or x8 (or x115 x103)) x22) x44)) (and (and (or x37 (or x131 (or (or x32 x133) x157))) (or (or x131 (or x114 (or x21 x67))) x101)) (and (or x42 (or x102 (or x117 (or x143 x76)))) (or x23 (or (or x113 (or x152 x17)) x102))))) (and (or (or (or x55 (or x134 x104)) x66) x146) (or x79 (or x66 (or x70 (or x13 x64)))))))) (and (and (or x130 (or (or (or x91 x53) x106) x15)) (or x130 (or x138 (or (or x74 x9) x40)))) (and (and (or (or (or (or x92 x84) x61) x79) x47) (or x47 (or x146 (or (or x132 x140) x63)))) (and (and (or x156 (or (or (or x60 x81) x99) x29)) (or (or (or (or x51 x148) x65) x44) x156)) (and (and (or x90 (or (or (or x105 x5) x80) x42)) (or x90 (or (or x18 (or x2 x78)) x23))) (and (or (or (or (or x94 x7) x14) x37) x125) (or (or x101 (or x34 (or x10 x150))) x125))))))))))
(assert (let ((x112 (x26 x3 x3)) (x108 (x26 x149 x3)) (x19 (x26 x149 x139)) (x145 (x26 x142 x3)) (x121 (x26 x142 x142)) (x96 (x26 x110 x149)) (x20 (x26 x139 x142)) (x56 (x26 x3 x149)) (x30 (x26 x139 x149)) (x45 (x26 x110 x142)) (x33 (x26 x139 x110)) (x88 (x26 x3 x110)) (x137 (x26 x110 x139)) (x71 (x26 x139 x139)) (x32 (x26 x110 x110)) (x154 (x26 x149 x110)) (x57 (x26 x142 x139)) (x59 (x26 x3 x139)) (x86 (x26 x149 x149)) (x6 (x26 x139 x3)) (x39 (x26 x142 x149)) (x27 (x26 x3 x142)) (x16 (x26 x110 x3)) (x120 (x26 x142 x110)) (x153 (x26 x149 x142))) (let ((x77 (not (= x142 x20))) (x98 (not (= x142 x56))) (x74 (not (= x45 x110))) (x119 (not (= x3 x59))) (x118 (not (= x27 x3))) (x70 (not (= x139 x137))) (x129 (not (= x27 x142))) (x141 (not (= x142 x96))) (x127 (not (= x19 x142))) (x80 (not (= x39 x149))) (x116 (not (= x112 x3))) (x43 (not (= x139 x32))) (x14 (not (= x137 x149))) (x143 (not (= x3 x120))) (x50 (not (= x137 x142))) (x159 (not (= x30 x3))) (x82 (not (= x3 x153))) (x123 (not (= x33 x142))) (x54 (not (= x59 x139))) (x147 (not (= x3 x121))) (x55 (not (= x139 x120))) (x8 (not (= x139 x19))) (x2 (not (= x57 x149))) (x136 (not (= x112 x149))) (x106 (not (= x96 x110))) (x62 (not (= x108 x142))) (x68 (not (= x3 x86))) (x21 (not (= x20 x139))) (x25 (not (= x71 x139))) (x10 (not (= x19 x149))) (x65 (not (= x121 x110))) (x87 (not (= x59 x142))) (x1 (not (= x121 x142))) (x36 (not (= x142 x45))) (x115 (not (= x108 x139))) (x64 (not (= x139 x88))) (x66 (not (= x139 x33))) (x52 (not (= x3 x19))) (x157 (not (= x121 x139))) (x60 (not (= x112 x110))) (x124 (not (= x27 x139))) (x95 (not (= x121 x149))) (x24 (not (= x142 x39))) (x109 (not (= x39 x139))) (x7 (not (= x149 x16))) (x61 (not (= x153 x110))) (x46 (not (= x71 x142))) (x94 (not (= x149 x88))) (x76 (not (= x16 x3))) (x133 (not (= x32 x3))) (x69 (not (= x139 x145))) (x148 (not (= x154 x149))) (x9 (not (= x120 x110))) (x23 (not (= x59 x149))) (x11 (not (= x142 x32))) (x151 (not (= x154 x139))) (x29 (not (= x57 x110))) (x104 (not (= x139 x86))) (x12 (not (= x108 x3))) (x131 (not (= x139 x6))) (x158 (not (= x3 x45))) (x4 (not (= x3 x56))) (x18 (not (= x149 x6))) (x44 (not (= x110 x27))) (x134 (not (= x139 x45))) (x58 (not (= x6 x3))) (x97 (not (= x142 x16))) (x79 (not (= x39 x110))) (x35 (not (= x142 x86))) (x67 (not (= x139 x112))) (x138 (not (= x110 x88))) (x105 (not (= x149 x71))) (x92 (not (= x110 x59))) (x156 (not (= x6 x110))) (x132 (not (= x108 x110))) (x130 (not (= x110 x32))) (x81 (not (= x110 x145))) (x51 (not (= x149 x32))) (x28 (not (= x57 x142))) (x125 (not (= x149 x96))) (x5 (not (= x153 x149))) (x150 (not (= x149 x30))) (x40 (not (= x16 x110))) (x41 (not (= x96 x139))) (x99 (not (= x110 x20))) (x101 (not (= x45 x149))) (x17 (not (= x3 x33))) (x90 (not (= x56 x149))) (x91 (not (= x33 x110))) (x75 (not (= x3 x71))) (x38 (not (= x149 x145))) (x117 (not (= x3 x88))) (x128 (not (= x142 x120))) (x114 (not (= x57 x139))) (x13 (not (= x139 x16))) (x100 (not (= x57 x3))) (x85 (not (= x39 x3))) (x34 (not (= x86 x149))) (x53 (not (= x110 x137))) (x93 (not (= x30 x142))) (x113 (not (= x96 x3))) (x22 (not (= x139 x30))) (x31 (not (= x20 x3))) (x49 (not (= x139 x153))) (x63 (not (= x19 x110))) (x126 (not (= x120 x149))) (x144 (not (= x142 x153))) (x83 (not (= x142 x154))) (x42 (not (= x149 x108))) (x84 (not (= x110 x71))) (x152 (not (= x3 x137))) (x140 (not (= x56 x110))) (x135 (not (= x142 x88))) (x89 (not (= x3 x145))) (x103 (not (= x56 x139))) (x111 (not (= x142 x145))) (x37 (not (= x33 x149))) (x102 (not (= x3 x154))) (x122 (not (= x142 x6))) (x72 (not (= x142 x112))) (x47 (not (= x110 x86))) (x15 (not (= x154 x110))) (x78 (not (= x149 x20))) (x146 (not (= x30 x110))) (x107 (not (= x149 x27)))) (or (and (and (and (or x106 x15) (and (or x53 x91) (and (or x74 x9) (or x138 x40)))) (or x130 x130)) (and (and (and (and (or x146 x63) (and (and (or x99 x29) (or x156 x92)) (or x84 x84))) (or x53 x91)) (and (and (or x74 x9) (and (and (and (or x65 x65) (or x81 x44)) (or x99 x29)) (or x61 x79))) (and (or x138 x40) (and (or x140 x132) (and (and (or x44 x81) (or x60 x60)) (or x92 x156)))))) (and (or x106 x15) (and (or x47 x47) (and (and (or x140 x132) (or x79 x61)) (or x63 x146)))))) (or (or (or (and (and (and (or x83 x141) (and (and (or x127 x93) (and (or x62 x98) (or x24 x144))) (or x35 x35))) (and (and (and (or x128 x36) (and (and (and (or x1 x1) (or x129 x111)) (or x77 x28)) (or x144 x24))) (and (and (and (or x122 x87) (and (or x72 x72) (or x111 x129))) (or x98 x62)) (or x97 x135))) (and (and (or x127 x93) (and (and (or x122 x87) (or x77 x28)) (or x46 x46))) (or x123 x50)))) (and (or x11 x11) (and (and (or x123 x50) (and (or x36 x128) (or x97 x135))) (or x83 x141)))) (and (and (and (and (and (and (or x82 x85) (and (and (or x147 x147) (or x118 x89)) (or x100 x31))) (or x143 x158)) (and (and (and (and (or x116 x116) (or x89 x118)) (or x58 x119)) (or x4 x12)) (or x76 x117))) (and (or x152 x17) (and (and (or x75 x75) (and (or x31 x100) (or x58 x119))) (or x52 x159)))) (and (or x102 x113) (and (and (or x52 x159) (and (or x4 x12) (or x82 x85))) (or x68 x68)))) (and (or x133 x133) (and (and (or x152 x17) (and (or x76 x117) (or x158 x143))) (or x102 x113))))) (and (and (and (or x41 x151) (and (or x66 x70) (and (or x55 x134) (or x13 x64)))) (or x43 x43)) (and (and (and (or x66 x70) (and (and (and (or x54 x131) (or x21 x114)) (or x25 x25)) (or x22 x8))) (and (and (or x134 x55) (and (and (or x114 x21) (and (or x124 x69) (or x157 x157))) (or x109 x49))) (and (or x64 x13) (and (or x103 x115) (and (and (or x67 x67) (or x124 x69)) (or x54 x131)))))) (and (or x41 x151) (and (and (and (or x109 x49) (or x103 x115)) (or x8 x22)) (or x104 x104)))))) (and (and (and (or x125 x148) (and (or x34 x34) (and (or x150 x10) (and (or x90 x42) (or x80 x5))))) (and (and (and (and (or x42 x90) (and (and (or x107 x38) (or x136 x136)) (or x23 x18))) (or x94 x7)) (and (and (or x5 x80) (and (and (or x38 x107) (or x95 x95)) (or x78 x2))) (or x101 x126))) (and (or x14 x37) (and (or x10 x150) (and (or x105 x105) (and (or x2 x78) (or x18 x23))))))) (and (and (and (or x37 x14) (and (or x94 x7) (or x126 x101))) (or x148 x125)) (or x51 x51))))))))
(assert (let ((x111 (x26 x142 x139)) (x98 (x26 x139 x139)) (x128 (x26 x149 x139)) (x62 (x26 x139 x3)) (x50 (x26 x110 x142)) (x87 (x26 x3 x139)) (x141 (x26 x110 x139)) (x28 (x26 x3 x142)) (x83 (x26 x110 x149)) (x135 (x26 x149 x110)) (x93 (x26 x139 x110)) (x72 (x26 x142 x149)) (x46 (x26 x3 x149)) (x122 (x26 x3 x3)) (x127 (x26 x139 x149)) (x123 (x26 x110 x3)) (x144 (x26 x3 x110)) (x129 (x26 x142 x3)) (x97 (x26 x149 x149)) (x1 (x26 x142 x142)) (x36 (x26 x149 x3)) (x77 (x26 x142 x110)) (x35 (x26 x149 x142)) (x11 (x26 x110 x110)) (x24 (x26 x139 x142))) (or (and (not (= x110 (x26 x11 x11))) (and (not (= x149 (x26 x83 x83))) (and (and (not (= x142 (x26 x50 x50))) (not (= (x26 x123 x123) x3))) (not (= (x26 x141 x141) x139))))) (or (or (or (and (and (not (= x149 (x26 x46 x46))) (and (not (= (x26 x87 x87) x139)) (and (not (= x142 (x26 x28 x28))) (not (= (x26 x122 x122) x3))))) (not (= (x26 x144 x144) x110))) (and (and (not (= (x26 x72 x72) x149)) (and (not (= x139 (x26 x111 x111))) (and (not (= x3 (x26 x129 x129))) (not (= x142 (x26 x1 x1)))))) (not (= x110 (x26 x77 x77))))) (and (and (not (= x149 (x26 x127 x127))) (and (and (not (= x142 (x26 x24 x24))) (not (= (x26 x62 x62) x3))) (not (= (x26 x98 x98) x139)))) (not (= x110 (x26 x93 x93))))) (and (and (and (not (= x139 (x26 x128 x128))) (and (not (= (x26 x35 x35) x142)) (not (= x3 (x26 x36 x36))))) (not (= x149 (x26 x97 x97)))) (not (= x110 (x26 x135 x135))))))))
(assert (or (or (or (and (and (and (not (= x139 (x26 x139 (x26 x139 x139)))) (and (not (= x139 (x26 x142 (x26 x139 x142)))) (not (= x139 (x26 x3 (x26 x139 x3)))))) (not (= (x26 x149 (x26 x139 x149)) x139))) (not (= x139 (x26 x110 (x26 x139 x110))))) (or (and (not (= (x26 x110 (x26 x3 x110)) x3)) (and (and (and (not (= x3 (x26 x3 (x26 x3 x3)))) (not (= x3 (x26 x142 (x26 x3 x142))))) (not (= (x26 x139 (x26 x3 x139)) x3))) (not (= x3 (x26 x149 (x26 x3 x149)))))) (and (not (= (x26 x110 (x26 x142 x110)) x142)) (and (and (and (not (= (x26 x3 (x26 x142 x3)) x142)) (not (= x142 (x26 x142 (x26 x142 x142))))) (not (= x142 (x26 x139 (x26 x142 x139))))) (not (= x142 (x26 x149 (x26 x142 x149)))))))) (and (and (not (= x149 (x26 x149 (x26 x149 x149)))) (and (and (not (= (x26 x3 (x26 x149 x3)) x149)) (not (= x149 (x26 x142 (x26 x149 x142))))) (not (= x149 (x26 x139 (x26 x149 x139)))))) (not (= x149 (x26 x110 (x26 x149 x110)))))) (and (and (and (not (= (x26 x139 (x26 x110 x139)) x110)) (and (not (= (x26 x3 (x26 x110 x3)) x110)) (not (= (x26 x142 (x26 x110 x142)) x110)))) (not (= (x26 x149 (x26 x110 x149)) x110))) (not (= (x26 x110 (x26 x110 x110)) x110)))))
(assert (and (and (and (and (and (not (= x3 x149)) (and (not (= x3 x139)) (and (and (not (= x149 x142)) (and (not (= x3 x142)) (not (= x139 x142)))) (not (= x110 x142))))) (not (= x110 x3))) (not (= x149 x139))) (not (= x139 x110))) (not (= x149 x110))))
(assert (let ((x77 (x26 x139 x142)) (x97 (x26 x110 x3)) (x135 (x26 x3 x110)) (x36 (x26 x110 x142)) (x147 (x26 x142 x3)) (x72 (x26 x3 x3)) (x93 (x26 x139 x149)) (x50 (x26 x110 x139)) (x11 (x26 x110 x110)) (x87 (x26 x3 x139)) (x46 (x26 x139 x139)) (x141 (x26 x110 x149)) (x127 (x26 x149 x139)) (x121 (x26 x142 x142)) (x123 (x26 x139 x110)) (x129 (x26 x3 x142)) (x20 (x26 x142 x149)) (x35 (x26 x149 x149)) (x153 (x26 x142 x110)) (x122 (x26 x139 x3)) (x62 (x26 x149 x3)) (x144 (x26 x149 x142)) (x83 (x26 x149 x110)) (x27 (x26 x142 x139)) (x98 (x26 x3 x149))) (let ((x6 (not (= x110 x97))) (x24 (not (= x20 x142))) (x16 (not (= x139 x93))) (x58 (not (= x139 x123))) (x89 (not (= x122 x139))) (x45 (not (= x3 x72))) (x128 (not (= x153 x142))) (x112 (not (= x98 x3))) (x145 (not (= x129 x3))) (x111 (not (= x147 x142))) (x100 (not (= x141 x110))) (x1 (not (= x121 x142))) (x118 (not (= x87 x3))) (x71 (not (= x110 x11))) (x120 (not (= x36 x110))) (x119 (not (= x149 x83))) (x39 (not (= x149 x144))) (x59 (not (= x135 x3))) (x108 (not (= x127 x149))) (x28 (not (= x27 x142))) (x116 (not (= x62 x149))) (x31 (not (= x149 x35))) (x57 (not (= x139 x77))) (x56 (not (= x46 x139))) (x88 (not (= x50 x110)))) (or (or (and (and (and (and (or x88 (not (= x123 x149))) (and (and (or (not (= x149 x46)) x56) (and (or x28 (not (= x77 x149))) (or x118 (not (= x149 x122))))) (or x108 (not (= x149 x93))))) (and (and (and (or x116 (not (= x98 x149))) (and (and (or x45 (not (= x149 x72))) (or (not (= x129 x149)) x111)) (or x89 (not (= x87 x149))))) (or (not (= x135 x149)) x6)) (and (or (not (= x153 x149)) x120) (and (and (or (not (= x149 x27)) x57) (and (or (not (= x149 x121)) x1) (or x145 (not (= x147 x149))))) (or (not (= x149 x20)) x39))))) (and (and (and (and (or x39 x24) (or x116 x112)) (or x108 x16)) (or x31 x31)) (or x119 x100))) (and (or x71 (not (= x149 x11))) (and (and (or x58 (not (= x149 x50))) (and (or (not (= x97 x149)) x59) (or x128 (not (= x149 x36))))) (or (not (= x141 x149)) x119)))) (or (and (and (and (and (or x88 x58) (and (and (or x56 x56) (and (or x57 x28) (or x89 x118))) (or x16 x108))) (and (and (or x120 (not (= x139 x153))) (and (and (or (not (= x139 x27)) x57) (and (or (not (= x147 x139)) x145) (or x1 (not (= x121 x139))))) (or (not (= x20 x139)) x39))) (and (or x6 (not (= x135 x139))) (and (or (not (= x139 x98)) x116) (and (or (not (= x139 x87)) x89) (and (or (not (= x129 x139)) x111) (or (not (= x72 x139)) x45))))))) (and (and (or (not (= x35 x139)) x31) (and (and (or (not (= x62 x139)) x112) (or (not (= x139 x144)) x24)) (or x16 (not (= x139 x127))))) (or (not (= x83 x139)) x100))) (and (or (not (= x11 x139)) x71) (and (and (or x58 (not (= x139 x50))) (and (or x59 (not (= x97 x139))) (or (not (= x36 x139)) x128))) (or (not (= x141 x139)) x119)))) (or (and (and (and (or (not (= x141 x142)) x119) (and (or x58 (not (= x50 x142))) (and (or x128 (not (= x142 x36))) (or (not (= x142 x97)) x59)))) (or (not (= x11 x142)) x71)) (and (and (and (or (not (= x123 x142)) x88) (and (and (and (or x118 (not (= x122 x142))) (or x28 (not (= x77 x142)))) (or x56 (not (= x142 x46)))) (or x108 (not (= x142 x93))))) (and (and (or x6 (not (= x135 x142))) (and (and (or (not (= x87 x142)) x89) (and (or x111 (not (= x129 x142))) (or x45 (not (= x72 x142))))) (or (not (= x142 x98)) x116))) (and (and (and (or x57 x28) (and (or x145 x111) (or x1 x1))) (or x24 x39)) (or x120 x128)))) (and (and (and (and (or x24 (not (= x144 x142))) (or x112 (not (= x62 x142)))) (or (not (= x127 x142)) x16)) (or (not (= x35 x142)) x31)) (or (not (= x142 x83)) x100)))) (and (and (and (and (and (and (or x56 (not (= x3 x46))) (and (or (not (= x77 x3)) x28) (or x118 (not (= x122 x3))))) (or (not (= x93 x3)) x108)) (or x88 (not (= x3 x123)))) (and (and (or (not (= x3 x153)) x120) (and (and (and (or x1 (not (= x121 x3))) (or x145 (not (= x147 x3)))) (or x57 (not (= x3 x27)))) (or x39 (not (= x3 x20))))) (and (and (or x112 x116) (and (and (or x111 x145) (or x45 x45)) (or x118 x89))) (or x6 x59)))) (and (or (not (= x83 x3)) x100) (and (and (and (or x112 (not (= x3 x62))) (or x24 (not (= x3 x144)))) (or (not (= x3 x127)) x16)) (or (not (= x3 x35)) x31)))) (and (or x71 (not (= x3 x11))) (and (or (not (= x141 x3)) x119) (and (or (not (= x3 x50)) x58) (and (or x59 (not (= x3 x97))) (or x128 (not (= x36 x3))))))))))) (and (and (and (and (and (and (or (not (= x144 x110)) x24) (or x112 (not (= x62 x110)))) (or (not (= x110 x127)) x16)) (or x31 (not (= x110 x35)))) (or x100 (not (= x110 x83)))) (and (and (and (or x108 (not (= x93 x110))) (and (or (not (= x110 x46)) x56) (and (or x118 (not (= x122 x110))) (or x28 (not (= x77 x110)))))) (or x88 (not (= x110 x123)))) (and (and (or x6 (not (= x110 x135))) (and (or (not (= x98 x110)) x116) (and (and (or (not (= x129 x110)) x111) (or (not (= x110 x72)) x45)) (or (not (= x87 x110)) x89)))) (and (or (not (= x153 x110)) x120) (and (or x39 (not (= x20 x110))) (and (or x57 (not (= x110 x27))) (and (or x1 (not (= x110 x121))) (or x145 (not (= x110 x147)))))))))) (and (or x71 x71) (and (or x119 x100) (and (or x58 x88) (and (or x6 x59) (or x128 x120))))))))))
(assert (let ((x83 (x26 x149 x110)) (x127 (x26 x149 x139)) (x141 (x26 x139 x110)) (x97 (x26 x149 x149)) (x62 (x26 x3 x139)) (x36 (x26 x3 x149)) (x1 (x26 x142 x142)) (x24 (x26 x142 x139)) (x93 (x26 x110 x139)) (x129 (x26 x3 x142)) (x87 (x26 x139 x3)) (x77 (x26 x110 x142)) (x35 (x26 x142 x149)) (x135 (x26 x110 x149)) (x123 (x26 x3 x110)) (x98 (x26 x139 x139)) (x28 (x26 x142 x3)) (x72 (x26 x149 x142)) (x122 (x26 x3 x3)) (x46 (x26 x149 x3)) (x144 (x26 x110 x3)) (x11 (x26 x110 x110)) (x50 (x26 x142 x110)) (x128 (x26 x139 x149)) (x111 (x26 x139 x142))) (and (and (and (and (and (not (= x127 x93)) (and (not (= x93 x98)) (and (not (= x98 x127)) (and (and (and (not (= x98 x62)) (and (and (and (not (= x98 x24)) (not (= x24 x62))) (not (= x24 x127))) (not (= x93 x24)))) (not (= x62 x127))) (not (= x62 x93)))))) (and (and (not (= x144 x46)) (and (not (= x87 x144)) (and (not (= x87 x46)) (and (and (and (not (= x122 x87)) (and (not (= x28 x144)) (and (not (= x46 x28)) (and (not (= x87 x28)) (not (= x28 x122)))))) (not (= x122 x46))) (not (= x122 x144)))))) (and (not (= x72 x77)) (and (and (not (= x72 x111)) (and (and (not (= x72 x129)) (and (and (and (and (not (= x1 x129)) (not (= x1 x111))) (not (= x1 x72))) (not (= x1 x77))) (not (= x129 x111)))) (not (= x77 x129)))) (not (= x111 x77)))))) (and (and (and (and (and (and (not (= x36 x128)) (and (not (= x35 x135)) (and (not (= x97 x35)) (and (not (= x35 x36)) (not (= x128 x35)))))) (not (= x36 x97))) (not (= x36 x135))) (not (= x97 x128))) (not (= x135 x128))) (not (= x135 x97)))) (and (and (not (= x141 x11)) (and (and (not (= x123 x11)) (and (not (= x123 x83)) (and (not (= x123 x141)) (and (not (= x50 x11)) (and (and (not (= x123 x50)) (not (= x141 x50))) (not (= x83 x50))))))) (not (= x83 x141)))) (not (= x11 x83)))) (and (and (and (and (and (and (not (= x83 x46)) (and (and (and (and (and (not (= x72 x127)) (not (= x46 x72))) (not (= x97 x72))) (not (= x72 x83))) (not (= x46 x127))) (not (= x97 x46)))) (not (= x127 x97))) (not (= x127 x83))) (not (= x83 x97))) (and (and (and (and (not (= x123 x62)) (and (and (and (not (= x122 x36)) (and (and (not (= x123 x129)) (and (not (= x36 x129)) (and (not (= x129 x122)) (not (= x129 x62))))) (not (= x62 x122)))) (not (= x123 x122))) (not (= x62 x36)))) (not (= x36 x123))) (and (not (= x35 x50)) (and (not (= x50 x24)) (and (and (and (and (and (not (= x50 x1)) (and (and (not (= x24 x1)) (not (= x1 x28))) (not (= x1 x35)))) (not (= x28 x24))) (not (= x28 x35))) (not (= x28 x50))) (not (= x35 x24)))))) (and (and (and (not (= x98 x128)) (and (and (not (= x87 x128)) (and (not (= x87 x98)) (and (not (= x111 x141)) (and (not (= x111 x128)) (and (not (= x87 x111)) (not (= x98 x111))))))) (not (= x87 x141)))) (not (= x141 x98))) (not (= x128 x141))))) (and (and (and (not (= x135 x93)) (and (and (not (= x144 x135)) (and (not (= x93 x144)) (and (not (= x11 x77)) (and (and (not (= x77 x93)) (not (= x144 x77))) (not (= x135 x77)))))) (not (= x144 x11)))) (not (= x11 x93))) (not (= x135 x11)))))))
(assert (let ((x62 (x26 x139 x3)) (x128 (x26 x149 x139)) (x87 (x26 x3 x139)) (x36 (x26 x149 x3)) (x135 (x26 x149 x110)) (x77 (x26 x142 x110)) (x144 (x26 x3 x110)) (x98 (x26 x139 x139)) (x50 (x26 x110 x142)) (x24 (x26 x139 x142)) (x72 (x26 x142 x149)) (x127 (x26 x139 x149)) (x97 (x26 x149 x149)) (x123 (x26 x110 x3)) (x35 (x26 x149 x142)) (x83 (x26 x110 x149)) (x93 (x26 x139 x110)) (x1 (x26 x142 x142)) (x28 (x26 x3 x142)) (x46 (x26 x3 x149)) (x141 (x26 x110 x139)) (x111 (x26 x142 x139)) (x122 (x26 x3 x3)) (x129 (x26 x142 x3)) (x11 (x26 x110 x110))) (and (and (and (and (and (and (and (and (or (or (or (= x1 x139) (or (= x1 x3) (= x1 x142))) (= x149 x1)) (= x1 x110)) (or (= x129 x110) (or (= x149 x129) (or (= x129 x139) (or (= x129 x142) (= x3 x129)))))) (or (or (or (= x111 x139) (or (= x111 x3) (= x142 x111))) (= x149 x111)) (= x110 x111))) (or (or (or (= x139 x72) (or (= x72 x142) (= x72 x3))) (= x72 x149)) (= x72 x110))) (or (= x77 x110) (or (or (= x139 x77) (or (= x3 x77) (= x142 x77))) (= x77 x149)))) (and (or (= x144 x110) (or (= x149 x144) (or (or (= x144 x3) (= x144 x142)) (= x139 x144)))) (and (and (or (or (= x149 x87) (or (= x139 x87) (or (= x87 x3) (= x142 x87)))) (= x110 x87)) (and (or (= x110 x122) (or (= x149 x122) (or (= x139 x122) (or (= x122 x142) (= x122 x3))))) (or (= x28 x110) (or (= x28 x149) (or (= x28 x139) (or (= x28 x142) (= x3 x28))))))) (or (or (= x149 x46) (or (= x139 x46) (or (= x3 x46) (= x142 x46)))) (= x46 x110))))) (and (or (or (or (= x139 x93) (or (= x142 x93) (= x93 x3))) (= x93 x149)) (= x110 x93)) (and (or (= x127 x110) (or (= x149 x127) (or (= x127 x139) (or (= x3 x127) (= x142 x127))))) (and (or (or (= x149 x98) (or (or (= x98 x3) (= x142 x98)) (= x98 x139))) (= x98 x110)) (and (or (or (or (or (= x62 x3) (= x62 x142)) (= x139 x62)) (= x62 x149)) (= x110 x62)) (or (= x110 x24) (or (or (= x24 x139) (or (= x3 x24) (= x24 x142))) (= x149 x24)))))))) (and (and (and (and (or (or (= x149 x36) (or (= x139 x36) (or (= x36 x142) (= x3 x36)))) (= x36 x110)) (or (or (= x149 x35) (or (= x35 x139) (or (= x35 x142) (= x35 x3)))) (= x110 x35))) (or (= x128 x110) (or (= x128 x149) (or (or (= x128 x3) (= x142 x128)) (= x139 x128))))) (or (= x97 x110) (or (or (or (= x97 x3) (= x97 x142)) (= x139 x97)) (= x97 x149)))) (or (= x135 x110) (or (or (= x139 x135) (or (= x135 x142) (= x3 x135))) (= x149 x135))))) (and (and (and (or (or (or (= x139 x141) (or (= x3 x141) (= x142 x141))) (= x149 x141)) (= x110 x141)) (and (or (or (= x149 x50) (or (= x50 x139) (or (= x50 x142) (= x50 x3)))) (= x110 x50)) (or (or (= x149 x123) (or (or (= x123 x142) (= x3 x123)) (= x139 x123))) (= x110 x123)))) (or (= x83 x110) (or (= x149 x83) (or (= x83 x139) (or (= x3 x83) (= x142 x83)))))) (or (= x11 x110) (or (or (or (= x3 x11) (= x11 x142)) (= x11 x139)) (= x149 x11)))))))
(assert (not (and (and (and (and (and (= x3 (x26 x110 x142)) (and (and (and (and (= x3 (x26 x149 x3)) (and (= (x26 x149 x142) x110) (and (= x110 (x26 x139 x110)) (and (and (= (x26 x139 x139) x142) (and (= x149 (x26 x139 x3)) (and (and (and (and (= (x26 x3 x139) x3) (and (= (x26 x3 x3) x139) (and (and (and (= x139 (x26 x142 x149)) (and (= x110 (x26 x142 x139)) (and (= x149 (x26 x142 x142)) (= (x26 x142 x3) x142)))) (= (x26 x142 x110) x3)) (= x142 (x26 x3 x142))))) (= (x26 x3 x149) x110)) (= (x26 x3 x110) x149)) (= x139 (x26 x139 x142))))) (= x3 (x26 x139 x149)))))) (= x149 (x26 x149 x139))) (= x142 (x26 x149 x149))) (= x139 (x26 x149 x110)))) (= x110 (x26 x110 x3))) (= x139 (x26 x110 x139))) (= x149 (x26 x110 x149))) (= x142 (x26 x110 x110)))))
(assert (or (and (and (not (= x149 (x26 (x26 x149 x110) x110))) (and (and (not (= x3 (x26 (x26 x3 x110) x110))) (not (= (x26 (x26 x142 x110) x110) x142))) (not (= x139 (x26 (x26 x139 x110) x110))))) (not (= (x26 (x26 x110 x110) x110) x110))) (or (and (not (= x110 (x26 (x26 x110 x149) x149))) (and (and (and (not (= (x26 (x26 x142 x149) x149) x142)) (not (= (x26 (x26 x3 x149) x149) x3))) (not (= x139 (x26 (x26 x139 x149) x149)))) (not (= x149 (x26 (x26 x149 x149) x149))))) (or (and (and (and (not (= x139 (x26 (x26 x139 x139) x139))) (and (not (= (x26 (x26 x142 x139) x139) x142)) (not (= x3 (x26 (x26 x3 x139) x139))))) (not (= x149 (x26 (x26 x149 x139) x139)))) (not (= x110 (x26 (x26 x110 x139) x139)))) (or (and (not (= x110 (x26 (x26 x110 x142) x142))) (and (not (= (x26 (x26 x149 x142) x142) x149)) (and (not (= x139 (x26 (x26 x139 x142) x142))) (and (not (= x142 (x26 (x26 x142 x142) x142))) (not (= x3 (x26 (x26 x3 x142) x142))))))) (and (not (= (x26 (x26 x110 x3) x3) x110)) (and (and (and (not (= (x26 (x26 x142 x3) x3) x142)) (not (= (x26 (x26 x3 x3) x3) x3))) (not (= (x26 (x26 x139 x3) x3) x139))) (not (= x149 (x26 (x26 x149 x3) x3))))))))))
(assert (and (and (and (not (= x139 (x26 x139 x139))) (and (not (= (x26 x142 x142) x142)) (not (= x3 (x26 x3 x3))))) (not (= (x26 x149 x149) x149))) (not (= x110 (x26 x110 x110)))))
(assert (let ((x72 (x26 x149 x149)) (x77 (x26 x110 x110)) (x1 (x26 x142 x142)) (x129 (x26 x3 x3)) (x111 (x26 x139 x139))) (or (= (x26 x77 x77) x110) (or (or (or (= (x26 x129 x129) x3) (= x142 (x26 x1 x1))) (= (x26 x111 x111) x139)) (= (x26 x72 x72) x149)))))
(assert (not (and (= x149 (x26 x110 x110)) (and (= (x26 x110 x149) x110) (and (= x139 (x26 x110 x139)) (and (and (and (and (and (and (and (and (and (and (and (and (= (x26 x139 x142) x142) (and (= (x26 x3 x110) x3) (and (= x149 (x26 x3 x149)) (and (and (= x110 (x26 x3 x3)) (and (= (x26 x3 x142) x139) (and (= (x26 x142 x110) x142) (and (= (x26 x142 x149) x139) (and (= (x26 x142 x139) x110) (and (= (x26 x142 x3) x3) (= (x26 x142 x142) x149))))))) (= (x26 x3 x139) x142))))) (= x139 (x26 x139 x3))) (= x149 (x26 x139 x139))) (= (x26 x139 x149) x3)) (= x110 (x26 x139 x110))) (= x110 (x26 x149 x142))) (= x149 (x26 x149 x3))) (= (x26 x149 x139) x3)) (= x142 (x26 x149 x149))) (= x139 (x26 x149 x110))) (= x3 (x26 x110 x142))) (= x142 (x26 x110 x3))))))))
(assert (let ((x1 (x26 x142 x142)) (x72 (x26 x149 x149)) (x129 (x26 x3 x3)) (x77 (x26 x110 x110)) (x111 (x26 x139 x139))) (or (or (and (and (not (= (x26 x149 x72) x149)) (and (and (not (= (x26 x3 x72) x3)) (not (= (x26 x142 x72) x142))) (not (= x139 (x26 x139 x72))))) (not (= x110 (x26 x110 x72)))) (or (and (and (not (= (x26 x149 x111) x149)) (and (and (not (= (x26 x3 x111) x3)) (not (= x142 (x26 x142 x111)))) (not (= (x26 x139 x111) x139)))) (not (= x110 (x26 x110 x111)))) (or (and (and (not (= (x26 x149 x1) x149)) (and (not (= x139 (x26 x139 x1))) (and (not (= (x26 x3 x1) x3)) (not (= (x26 x142 x1) x142))))) (not (= (x26 x110 x1) x110))) (and (not (= (x26 x110 x129) x110)) (and (and (not (= x139 (x26 x139 x129))) (and (not (= x142 (x26 x142 x129))) (not (= (x26 x3 x129) x3)))) (not (= (x26 x149 x129) x149))))))) (and (not (= x110 (x26 x110 x77))) (and (and (and (not (= x3 (x26 x3 x77))) (not (= x142 (x26 x142 x77)))) (not (= x139 (x26 x139 x77)))) (not (= (x26 x149 x77) x149)))))))
(check-sat)
(exit)
